Version identifier: 22.1.1.0 | 2022-11-28 | 9160aff4d
CPXPARAM_ClockType                               1
CPXPARAM_Read_DataCheck                          1
CPXPARAM_Threads                                 1
CPXPARAM_TimeLimit                               7200
CPXPARAM_MIP_Tolerances_AbsMIPGap                0
CPXPARAM_MIP_Tolerances_MIPGap                   0
CPXPARAM_MIP_Tolerances_Integrality              0
Tried aggregator 2 times.
MIP Presolve eliminated 37 rows and 15 columns.
MIP Presolve modified 8 coefficients.
Aggregator did 4 substitutions.
Reduced MIP has 132091 rows, 69566 columns, and 434956 nonzeros.
Reduced MIP has 69566 binaries, 0 generals, 0 SOSs, and 0 indicators.
Presolve time = 0.54 sec. (296.14 ticks)
Probing time = 0.11 sec. (23.22 ticks)
Tried aggregator 1 time.
Detecting symmetries...
Reduced MIP has 132091 rows, 69566 columns, and 434956 nonzeros.
Reduced MIP has 69566 binaries, 0 generals, 0 SOSs, and 0 indicators.
Presolve time = 0.74 sec. (324.53 ticks)
Probing time = 0.09 sec. (22.55 ticks)
Clique table members: 140210.
MIP emphasis: balance optimality and feasibility.
MIP search method: dynamic search.
Parallel mode: none, using 1 thread.
Root relaxation solution time = 383.01 sec. (167246.10 ticks)

        Nodes                                         Cuts/
   Node  Left     Objective  IInf  Best Integer    Best Bound    ItCnt     Gap

      0     0    27828.0000 28536                  27828.0000    56711         

Clique cuts applied:  3
Implied bound cuts applied:  5
Zero-half cuts applied:  6784
Lift and project cuts applied:  1
Gomory fractional cuts applied:  6

Root node processing (before b&c):
  Real time             = 7200.17 sec. (3158306.66 ticks)
Sequential b&c:
  Real time             =    0.00 sec. (0.00 ticks)
                          ------------
Total (root+branch&cut) = 7200.17 sec. (3158306.66 ticks)
Solution is infeasible.

---------------------
@@@ MIP_time_limit_infeasible
Traceback (most recent call last):
  File "/scratch/scherif/DiverseSAT-journal_sup/DiverseSAT_Supplementary_Experiments/experiment-1/cplex/jobs/../solvers/CPLEX-DW-SE.py", line 104, in <module>
    print(f">>> Benchmark {os.path.basename(cnf_file)} k {k} OPT {int(prob.solution.get_objective_value())}"
  File "/users/scherif/.local/lib/python3.9/site-packages/cplex/_internal/_subinterfaces.py", line 7211, in get_objective_value
    return CPX_PROC.getobjval(self._env._e, self._cplex._lp)
  File "/users/scherif/.local/lib/python3.9/site-packages/cplex/_internal/_procedural.py", line 2055, in getobjval
    check_status(env, status)
  File "/users/scherif/.local/lib/python3.9/site-packages/cplex/_internal/_procedural.py", line 249, in __call__
    raise CplexSolverError(error_string, env, status)
cplex.exceptions.errors.CplexSolverError: CPLEX Error  1217: No solution exists.
